c WARNING: for repeatability, setting FPU to use double precision
d VARIABLES            195090       
d CONSTRAINTS          892323       
c ============================[ Problem Statistics ]=============================
c |                                                                             |
c |  Number of variables:        195090                                         |
c |  Number of clauses:          892323                                         |
c |  Parse time:                   0.16 s                                       |
c |                                                                             |
c ============================[ Search Statistics ]==============================
c | Conflicts |          ORIGINAL         |          LEARNT          | Progress |
c |           |    Vars  Clauses Literals |    Limit  Clauses Lit/Cl |          |
c ===============================================================================
c |       100 |  172317   827631  1999042 |   303464      100     29 | 11.673 % |
c |       250 |  172317   827631  1999042 |   333811      250     24 | 11.673 % |
c |       475 |  172317   827631  1999042 |   367192      475     50 | 11.673 % |
c |       812 |  172317   827631  1999042 |   403911      812     63 | 11.673 % |
c |      1318 |  172317   827631  1999042 |   444302     1318     76 | 11.673 % |
c |      2077 |  172317   827631  1999042 |   488732     2077     83 | 11.673 % |
c |      3216 |  172317   827631  1999042 |   537606     3216     92 | 11.673 % |
c |      4924 |  172317   827631  1999042 |   591366     4924    101 | 11.673 % |
c |      7486 |  172317   827631  1999042 |   650503     7486     93 | 11.673 % |
c |     11330 |  172317   827631  1999042 |   715553    11330     97 | 11.673 % |
c |     17096 |  172317   827631  1999042 |   787109    17096    116 | 11.673 % |
c |     25745 |  172317   827631  1999042 |   865820    25745    134 | 11.673 % |
c |     38719 |  172317   827631  1999042 |   952402    38719    133 | 11.673 % |
c |     58180 |  172317   827631  1999042 |  1047642    58180    130 | 11.673 % |
c |     87372 |  172317   827631  1999042 |  1152406    87372    133 | 11.673 % |
c |    131161 |  172317   827631  1999042 |  1267647   131161    146 | 11.673 % |
c |    196845 |  172317   827631  1999042 |  1394412   196845    156 | 11.673 % |
c |    295371 |  172317   827631  1999042 |  1533853   295371    160 | 11.673 % |
c |    443160 |  172317   827631  1999042 |  1687238   443160    154 | 11.673 % |
c |    664843 |  172317   827631  1999042 |  1855962   664843    157 | 11.673 % |
c |    997368 |  172317   827631  1999042 |  2041558   997368    150 | 11.673 % |
c |   1496156 |  172317   827631  1999042 |  2245714  1496156    168 | 11.673 % |
c ===============================================================================
c restarts              : 3196
c conflicts             : 1677347        (936 /sec)
c decisions             : 4478211        (0.00 % random) (2499 /sec)
c propagations          : 3585088914     (2000367 /sec)
c conflict literals     : 269765173      (42.74 % deleted)
d RESTARTS             3196
d FAILURES             1677347      
d NODES                4478211      
d BACKTRACKS           4478211      
d PROPAGATIONS         3585088914   
d NOGOODSIZE           160.83 
d MEMORY               1616.00 
d TIME                 1792.22 

s UNKNOWN
